p cnf 16 36
1 0
-8 0
-9 0
-10 0
-11 0
-12 0
-13 0
-14 0
-15 0
-1 4 0
-1 5 0
-1 6 0
-1 8 0
-1 9 0
-1 10 0
-1 12 0
-1 13 0
-1 14 0
1 -4 -5 -6 -8 -9 -10 -12 -13 -14 0
-2 7 0
-2 11 0
-2 15 0
2 -7 -11 -15 0
-4 1 0
-5 1 0
-6 1 3 0
-7 2 0
-8 1 0
-9 1 0
-10 1 3 0
-11 2 0
-12 1 0
-13 1 0
-14 1 3 0
-15 2 0
-16 -2 0
